(set-info :source |printed by MathSAT|)
(declare-fun |.x{179}| () Int)
(declare-fun |.y{11}| () Int)
(declare-fun |.y{9}| () Int)
(declare-fun |.y{12}| () Int)
(declare-fun |.y{10}| () Int)
(declare-fun |.y{13}| () Int)
(declare-fun |.x{180}| () (Array Int Int))
(declare-fun |.y{14}| () (Array Int Int))
(declare-fun |.x{184}| () Int)
(declare-fun |.y{15}| () Int)
(declare-fun |.x{174}| () Int)
(declare-fun |.y{16}| () Int)
(declare-fun |.x{178}| () Int)
(declare-fun |.y{17}| () Int)
(declare-fun |.x{175}| () Int)
(declare-fun |.y{18}| () Int)
(declare-fun |.loc{4}| () Bool)
(declare-fun |.loc{7}| () Bool)
(declare-fun |.loc{5}| () Bool)
(declare-fun |.loc{8}| () Bool)
(declare-fun |.loc{6}| () Bool)
(declare-fun |.loc{9}| () Bool)
(declare-fun |.x{80}| () Int)
(declare-fun |.x{79}| () Int)
(declare-fun |.x{82}| () Int)
(declare-fun |.x{198}| () Bool)
(declare-fun |.x{83}| () Int)
(declare-fun |.x{100}| () Int)
(declare-fun |.x{202}| () Bool)
(declare-fun |.x{201}| () Bool)
(declare-fun |.x{84}| () Int)
(declare-fun |.x{197}| () Int)
(declare-fun |.x{200}| () Bool)
(declare-fun |.x{199}| () Bool)
(declare-fun |.x{181}| () Int)
(declare-fun |.x{232}| () Int)
(declare-fun |.x{193}| () Int)
(declare-fun |.x{85}| () Bool)
(declare-fun |.x{194}| () Int)
(declare-fun |.x{191}| () Bool)
(declare-fun |.x{203}| () Bool)
(declare-fun |.x{192}| () Int)
(declare-fun |.x{81}| () Int)
(define-fun .def_24 () Bool (! |.loc{4}| :next |.loc{7}|))
(define-fun .def_84 () Bool (not .def_24))
(define-fun .def_26 () Bool (! |.loc{5}| :next |.loc{8}|))
(define-fun .def_37 () Bool (not .def_26))
(define-fun .def_460 () Bool (and .def_37 .def_84))
(define-fun .def_28 () Bool (! |.loc{6}| :next |.loc{9}|))
(define-fun .def_32 () Bool (not .def_28))
(define-fun .def_461 () Bool (! (and .def_32 .def_460) :init true))
(define-fun .def_444 () Int (* (- 1) |.x{181}|))
(define-fun .def_20 () Int (! |.x{178}| :next |.y{17}|))
(define-fun .def_447 () Int (+ .def_20 .def_444))
(define-fun .def_8 () Int (! |.x{179}| :next |.y{11}|))
(define-fun .def_448 () Int (+ .def_8 .def_447))
(define-fun .def_449 () Bool (= .def_448 0))
(define-fun .def_437 () Bool (<= |.x{181}| 0))
(define-fun .def_438 () Bool (not .def_437))
(define-fun .def_107 () Bool (<= .def_8 0))
(define-fun .def_439 () Bool (or .def_107 .def_438))
(define-fun .def_16 () Int (! |.x{184}| :next |.y{15}|))
(define-fun .def_14 () (Array Int Int) (! |.x{180}| :next |.y{14}|))
(define-fun .def_422 () Int (select .def_14 |.x{181}|))
(define-fun .def_432 () Bool (<= .def_422 .def_16))
(define-fun .def_433 () Bool (not .def_432))
(define-fun .def_380 () Bool (and .def_24 .def_26))
(define-fun .def_393 () Bool (and .def_32 .def_380))
(define-fun .def_434 () Bool (and .def_393 .def_433))
(define-fun .def_356 () Int (select .def_14 |.x{232}|))
(define-fun .def_428 () Bool (= .def_16 .def_356))
(define-fun .def_429 () Bool (not .def_428))
(define-fun .def_18 () Int (! |.x{174}| :next |.y{16}|))
(define-fun .def_423 () Bool (<= .def_422 .def_18))
(define-fun .def_424 () Bool (not .def_423))
(define-fun .def_421 () Bool (and .def_28 .def_84))
(define-fun .def_425 () Bool (and .def_421 .def_424))
(define-fun .def_336 () Int (* (- 1) |.x{232}|))
(define-fun .def_339 () Int (+ .def_20 .def_336))
(define-fun .def_340 () Int (+ .def_8 .def_339))
(define-fun .def_341 () Bool (= .def_340 0))
(define-fun .def_426 () Bool (and .def_341 .def_425))
(define-fun .def_344 () Bool (<= |.x{232}| 0))
(define-fun .def_345 () Bool (not .def_344))
(define-fun .def_346 () Bool (or .def_107 .def_345))
(define-fun .def_427 () Bool (and .def_346 .def_426))
(define-fun .def_430 () Bool (and .def_427 .def_429))
(define-fun .def_431 () Bool (and .def_37 .def_430))
(define-fun .def_435 () Bool (or .def_431 .def_434))
(define-fun .def_22 () Int (! |.x{175}| :next |.y{18}|))
(define-fun .def_353 () Bool (<= .def_22 .def_20))
(define-fun .def_354 () Bool (not .def_353))
(define-fun .def_436 () Bool (and .def_354 .def_435))
(define-fun .def_440 () Bool (and .def_436 .def_439))
(define-fun .def_181 () Bool (not .def_107))
(define-fun .def_441 () Bool (and .def_181 .def_440))
(define-fun .def_442 () Bool (and |.loc{9}| .def_441))
(define-fun .def_35 () Bool (not |.loc{8}|))
(define-fun .def_443 () Bool (and .def_35 .def_442))
(define-fun .def_450 () Bool (and .def_443 .def_449))
(define-fun .def_418 () Bool (= |.y{16}| .def_20))
(define-fun .def_416 () Bool (= |.y{15}| .def_18))
(define-fun .def_408 () Bool (and .def_26 .def_84))
(define-fun .def_409 () Bool (and .def_32 .def_408))
(define-fun .def_73 () Bool (not |.loc{9}|))
(define-fun .def_410 () Bool (and .def_73 .def_409))
(define-fun .def_383 () Bool (= |.y{17}| 0))
(define-fun .def_411 () Bool (and .def_383 .def_410))
(define-fun .def_192 () Bool (<= .def_22 .def_16))
(define-fun .def_412 () Bool (and .def_192 .def_411))
(define-fun .def_30 () Bool (= .def_8 |.y{11}|))
(define-fun .def_413 () Bool (and .def_30 .def_412))
(define-fun .def_414 () Bool (and |.loc{8}| .def_413))
(define-fun .def_105 () Bool (= .def_14 |.y{14}|))
(define-fun .def_415 () Bool (and .def_105 .def_414))
(define-fun .def_417 () Bool (and .def_415 .def_416))
(define-fun .def_419 () Bool (and .def_417 .def_418))
(define-fun .def_122 () Bool (= .def_22 |.y{18}|))
(define-fun .def_420 () Bool (and .def_122 .def_419))
(define-fun .def_451 () Bool (or .def_420 .def_450))
(define-fun .def_397 () Bool (<= .def_356 .def_16))
(define-fun .def_394 () Bool (and .def_354 .def_393))
(define-fun .def_395 () Bool (and .def_73 .def_394))
(define-fun .def_396 () Bool (and .def_341 .def_395))
(define-fun .def_398 () Bool (and .def_396 .def_397))
(define-fun .def_399 () Bool (and .def_346 .def_398))
(define-fun .def_400 () Bool (and .def_30 .def_399))
(define-fun .def_401 () Bool (and .def_181 .def_400))
(define-fun .def_402 () Bool (and |.loc{8}| .def_401))
(define-fun .def_403 () Bool (and .def_105 .def_402))
(define-fun .def_332 () Int (* (- 1) |.y{17}|))
(define-fun .def_333 () Int (+ .def_20 .def_332))
(define-fun .def_334 () Bool (= .def_333 (- 1)))
(define-fun .def_404 () Bool (and .def_334 .def_403))
(define-fun .def_405 () Bool (and .def_122 .def_404))
(define-fun .def_39 () Bool (= .def_16 |.y{15}|))
(define-fun .def_406 () Bool (and .def_39 .def_405))
(define-fun .def_351 () Bool (= .def_18 |.y{16}|))
(define-fun .def_407 () Bool (and .def_351 .def_406))
(define-fun .def_452 () Bool (or .def_407 .def_451))
(define-fun .def_453 () Bool (and |.loc{7}| .def_452))
(define-fun .def_381 () Bool (and .def_353 .def_380))
(define-fun .def_382 () Bool (and .def_32 .def_381))
(define-fun .def_384 () Bool (and .def_382 .def_383))
(define-fun .def_385 () Bool (and .def_30 .def_384))
(define-fun .def_245 () Bool (not |.loc{7}|))
(define-fun .def_386 () Bool (and .def_245 .def_385))
(define-fun .def_387 () Bool (and .def_105 .def_386))
(define-fun .def_388 () Bool (and |.loc{9}| .def_387))
(define-fun .def_389 () Bool (and .def_35 .def_388))
(define-fun .def_390 () Bool (and .def_122 .def_389))
(define-fun .def_391 () Bool (and .def_39 .def_390))
(define-fun .def_392 () Bool (and .def_351 .def_391))
(define-fun .def_454 () Bool (or .def_392 .def_453))
(define-fun .def_374 () Bool (and |.x{198}| |.x{201}|))
(define-fun .def_377 () Bool (not .def_374))
(define-fun .def_378 () Bool (or |.x{203}| .def_377))
(define-fun .def_100 () Bool (not |.x{198}|))
(define-fun .def_375 () Bool (or .def_100 .def_374))
(define-fun .def_370 () Bool (= |.x{193}| |.x{194}|))
(define-fun .def_180 () Bool (not |.x{201}|))
(define-fun .def_371 () Bool (or .def_180 .def_370))
(define-fun .def_366 () Bool (= .def_16 |.x{197}|))
(define-fun .def_367 () Bool (= |.x{200}| .def_366))
(define-fun .def_368 () Bool (or .def_100 .def_367))
(define-fun .def_363 () Bool (and |.x{201}| |.x{191}|))
(define-fun .def_364 () Bool (or .def_180 .def_363))
(define-fun .def_360 () Bool (= |.x{197}| |.x{181}|))
(define-fun .def_361 () Bool (or .def_100 .def_360))
(define-fun .def_357 () Bool (= |.x{181}| .def_356))
(define-fun .def_358 () Bool (or .def_100 .def_357))
(define-fun .def_347 () Bool (or .def_100 .def_346))
(define-fun .def_342 () Bool (or .def_100 .def_341))
(define-fun .def_327 () Bool (<= |.x{194}| .def_18))
(define-fun .def_328 () Bool (not .def_327))
(define-fun .def_329 () Bool (= |.x{203}| .def_328))
(define-fun .def_330 () Bool (or .def_180 .def_329))
(define-fun .def_266 () Int (select .def_14 |.x{192}|))
(define-fun .def_324 () Bool (= |.x{193}| .def_266))
(define-fun .def_325 () Bool (or .def_180 .def_324))
(define-fun .def_318 () Bool (not |.x{203}|))
(define-fun .def_128 () Bool (and |.x{202}| |.x{201}|))
(define-fun .def_129 () Bool (not .def_128))
(define-fun .def_319 () Bool (or .def_129 .def_318))
(define-fun .def_285 () Bool (<= |.x{192}| 0))
(define-fun .def_286 () Bool (not .def_285))
(define-fun .def_315 () Bool (or .def_107 .def_286))
(define-fun .def_316 () Bool (or .def_180 .def_315))
(define-fun .def_253 () Bool (and |.x{198}| |.x{199}|))
(define-fun .def_256 () Bool (not .def_253))
(define-fun .def_313 () Bool (or |.x{200}| .def_256))
(define-fun .def_281 () Int (* (- 1) |.x{192}|))
(define-fun .def_308 () Int (+ .def_20 .def_281))
(define-fun .def_309 () Int (+ .def_8 .def_308))
(define-fun .def_310 () Bool (= .def_309 0))
(define-fun .def_311 () Bool (or .def_180 .def_310))
(define-fun .def_302 () Bool (or .def_128 .def_253))
(define-fun .def_239 () Bool (not |.x{199}|))
(define-fun .def_299 () Bool (or |.x{198}| .def_239))
(define-fun .def_296 () Bool (and .def_28 .def_30))
(define-fun .def_297 () Bool (and .def_105 .def_296))
(define-fun .def_298 () Bool (and .def_122 .def_297))
(define-fun .def_300 () Bool (and .def_298 .def_299))
(define-fun .def_140 () Bool (not |.x{202}|))
(define-fun .def_141 () Bool (or |.x{201}| .def_140))
(define-fun .def_301 () Bool (and .def_141 .def_300))
(define-fun .def_303 () Bool (and .def_301 .def_302))
(define-fun .def_304 () Bool (and |.loc{9}| .def_303))
(define-fun .def_305 () Bool (and .def_35 .def_304))
(define-fun .def_312 () Bool (and .def_305 .def_311))
(define-fun .def_314 () Bool (and .def_312 .def_313))
(define-fun .def_317 () Bool (and .def_314 .def_316))
(define-fun .def_320 () Bool (and .def_317 .def_319))
(define-fun .def_182 () Bool (or .def_180 .def_181))
(define-fun .def_321 () Bool (and .def_182 .def_320))
(define-fun .def_322 () Bool (and .def_37 .def_321))
(define-fun .def_323 () Bool (and .def_84 .def_322))
(define-fun .def_326 () Bool (and .def_323 .def_325))
(define-fun .def_331 () Bool (and .def_326 .def_330))
(define-fun .def_335 () Bool (and .def_331 .def_334))
(define-fun .def_343 () Bool (and .def_335 .def_342))
(define-fun .def_348 () Bool (and .def_343 .def_347))
(define-fun .def_349 () Bool (and .def_39 .def_348))
(define-fun .def_220 () Bool (or .def_100 .def_181))
(define-fun .def_350 () Bool (and .def_220 .def_349))
(define-fun .def_352 () Bool (and .def_350 .def_351))
(define-fun .def_355 () Bool (and .def_352 .def_354))
(define-fun .def_359 () Bool (and .def_355 .def_358))
(define-fun .def_362 () Bool (and .def_359 .def_361))
(define-fun .def_365 () Bool (and .def_362 .def_364))
(define-fun .def_369 () Bool (and .def_365 .def_368))
(define-fun .def_372 () Bool (and .def_369 .def_371))
(define-fun .def_373 () Bool (and .def_245 .def_372))
(define-fun .def_376 () Bool (and .def_373 .def_375))
(define-fun .def_379 () Bool (and .def_376 .def_378))
(define-fun .def_455 () Bool (or .def_379 .def_454))
(define-fun .def_292 () Bool (= .def_16 |.y{18}|))
(define-fun .def_10 () Int (! |.y{9}| :next |.y{12}|))
(define-fun .def_290 () Bool (= |.y{11}| .def_10))
(define-fun .def_52 () Bool (<= .def_10 0))
(define-fun .def_287 () Bool (or .def_52 .def_286))
(define-fun .def_282 () Int (+ .def_10 .def_281))
(define-fun .def_283 () Bool (= .def_282 (- 1)))
(define-fun .def_267 () Int (select .def_14 .def_10))
(define-fun .def_273 () Bool (<= .def_267 .def_266))
(define-fun .def_274 () Bool (not .def_273))
(define-fun .def_275 () Int (ite .def_274 .def_267 .def_266))
(define-fun .def_276 () Bool (= |.y{16}| .def_275))
(define-fun .def_268 () Bool (<= .def_266 .def_267))
(define-fun .def_269 () Bool (not .def_268))
(define-fun .def_270 () Int (ite .def_269 .def_267 .def_266))
(define-fun .def_271 () Bool (= |.y{17}| .def_270))
(define-fun .def_264 () Bool (= |.y{15}| 2))
(define-fun .def_259 () Bool (and .def_24 .def_32))
(define-fun .def_260 () Bool (and .def_105 .def_259))
(define-fun .def_261 () Bool (and |.loc{8}| .def_260))
(define-fun .def_262 () Bool (and .def_37 .def_261))
(define-fun .def_265 () Bool (and .def_262 .def_264))
(define-fun .def_272 () Bool (and .def_265 .def_271))
(define-fun .def_277 () Bool (and .def_272 .def_276))
(define-fun .def_12 () Int (! |.y{10}| :next |.y{13}|))
(define-fun .def_55 () Bool (<= .def_16 .def_12))
(define-fun .def_278 () Bool (and .def_55 .def_277))
(define-fun .def_284 () Bool (and .def_278 .def_283))
(define-fun .def_288 () Bool (and .def_284 .def_287))
(define-fun .def_53 () Bool (not .def_52))
(define-fun .def_289 () Bool (and .def_53 .def_288))
(define-fun .def_291 () Bool (and .def_289 .def_290))
(define-fun .def_293 () Bool (and .def_291 .def_292))
(define-fun .def_294 () Bool (and .def_245 .def_293))
(define-fun .def_295 () Bool (and .def_73 .def_294))
(define-fun .def_456 () Bool (or .def_295 .def_455))
(define-fun .def_257 () Bool (or |.x{85}| .def_256))
(define-fun .def_254 () Bool (or .def_100 .def_253))
(define-fun .def_247 () Bool (<= |.x{192}| .def_20))
(define-fun .def_248 () Bool (not .def_247))
(define-fun .def_249 () Bool (= |.x{85}| .def_248))
(define-fun .def_250 () Bool (or .def_239 .def_249))
(define-fun .def_238 () Bool (and |.x{201}| |.x{199}|))
(define-fun .def_242 () Bool (not .def_238))
(define-fun .def_243 () Bool (or |.x{191}| .def_242))
(define-fun .def_240 () Bool (or .def_238 .def_239))
(define-fun .def_235 () Bool (= |.x{192}| |.x{81}|))
(define-fun .def_236 () Bool (or .def_180 .def_235))
(define-fun .def_230 () Bool (<= .def_18 |.x{80}|))
(define-fun .def_231 () Bool (not .def_230))
(define-fun .def_232 () Bool (= |.x{191}| .def_231))
(define-fun .def_233 () Bool (or .def_180 .def_232))
(define-fun .def_227 () Bool (= |.x{80}| |.x{81}|))
(define-fun .def_228 () Bool (or .def_180 .def_227))
(define-fun .def_222 () Int (select .def_14 |.x{79}|))
(define-fun .def_224 () Bool (= .def_222 |.x{81}|))
(define-fun .def_225 () Bool (or .def_180 .def_224))
(define-fun .def_67 () Bool (<= |.x{79}| 0))
(define-fun .def_68 () Bool (not .def_67))
(define-fun .def_217 () Bool (or .def_68 .def_107))
(define-fun .def_218 () Bool (or .def_180 .def_217))
(define-fun .def_214 () Bool (= |.y{17}| |.x{194}|))
(define-fun .def_215 () Bool (or .def_100 .def_214))
(define-fun .def_62 () Int (* (- 1) |.x{79}|))
(define-fun .def_209 () Int (+ .def_16 .def_62))
(define-fun .def_210 () Int (+ .def_8 .def_209))
(define-fun .def_211 () Bool (= .def_210 0))
(define-fun .def_212 () Bool (or .def_180 .def_211))
(define-fun .def_205 () Bool (= .def_18 |.x{100}|))
(define-fun .def_206 () Bool (or .def_129 .def_205))
(define-fun .def_202 () Bool (= |.x{197}| |.x{192}|))
(define-fun .def_203 () Bool (or .def_129 .def_202))
(define-fun .def_195 () Bool (and |.x{201}| |.x{203}|))
(define-fun .def_199 () Bool (or .def_180 .def_195))
(define-fun .def_196 () Bool (not .def_195))
(define-fun .def_193 () Bool (not .def_192))
(define-fun .def_197 () Bool (or .def_193 .def_196))
(define-fun .def_189 () Bool (not |.x{191}|))
(define-fun .def_190 () Bool (or .def_129 .def_189))
(define-fun .def_184 () Bool (= .def_20 |.x{181}|))
(define-fun .def_148 () Bool (and |.x{200}| |.x{199}|))
(define-fun .def_149 () Bool (not .def_148))
(define-fun .def_185 () Bool (or .def_149 .def_184))
(define-fun .def_177 () Bool (or |.x{198}| .def_148))
(define-fun .def_178 () Bool (or .def_128 .def_177))
(define-fun .def_174 () Bool (= .def_18 |.x{193}|))
(define-fun .def_175 () Bool (or .def_100 .def_174))
(define-fun .def_171 () Bool (= .def_18 |.x{232}|))
(define-fun .def_172 () Bool (or .def_149 .def_171))
(define-fun .def_168 () Bool (= |.x{84}| |.x{194}|))
(define-fun .def_169 () Bool (or .def_100 .def_168))
(define-fun .def_164 () Bool (not |.x{85}|))
(define-fun .def_165 () Bool (or .def_149 .def_164))
(define-fun .def_160 () Bool (= |.y{16}| |.x{193}|))
(define-fun .def_161 () Bool (or .def_100 .def_160))
(define-fun .def_156 () Bool (= |.y{16}| |.x{232}|))
(define-fun .def_157 () Bool (or .def_149 .def_156))
(define-fun .def_151 () Bool (= |.y{17}| |.x{181}|))
(define-fun .def_152 () Bool (or .def_149 .def_151))
(define-fun .def_144 () Bool (not |.x{200}|))
(define-fun .def_146 () Bool (or .def_144 |.x{199}|))
(define-fun .def_137 () Bool (= |.y{16}| |.x{197}|))
(define-fun .def_138 () Bool (or .def_129 .def_137))
(define-fun .def_133 () Bool (= |.x{83}| |.x{84}|))
(define-fun .def_134 () Bool (or .def_100 .def_133))
(define-fun .def_125 () Bool (= |.y{17}| |.x{100}|))
(define-fun .def_130 () Bool (or .def_125 .def_129))
(define-fun .def_117 () Int (select .def_14 |.x{82}|))
(define-fun .def_119 () Bool (= .def_117 |.x{83}|))
(define-fun .def_120 () Bool (or .def_100 .def_119))
(define-fun .def_113 () Int (* (- 1) |.y{15}|))
(define-fun .def_114 () Int (+ .def_16 .def_113))
(define-fun .def_115 () Bool (= .def_114 (- 1)))
(define-fun .def_108 () Bool (<= |.x{82}| 0))
(define-fun .def_109 () Bool (not .def_108))
(define-fun .def_110 () Bool (or .def_107 .def_109))
(define-fun .def_111 () Bool (or .def_100 .def_110))
(define-fun .def_95 () Int (* (- 1) |.x{82}|))
(define-fun .def_96 () Int (+ .def_16 .def_95))
(define-fun .def_97 () Int (+ .def_8 .def_96))
(define-fun .def_98 () Bool (= .def_97 0))
(define-fun .def_101 () Bool (or .def_98 .def_100))
(define-fun .def_102 () Bool (and .def_26 .def_101))
(define-fun .def_103 () Bool (and .def_30 .def_102))
(define-fun .def_104 () Bool (and .def_32 .def_103))
(define-fun .def_106 () Bool (and .def_104 .def_105))
(define-fun .def_112 () Bool (and .def_106 .def_111))
(define-fun .def_116 () Bool (and .def_112 .def_115))
(define-fun .def_121 () Bool (and .def_116 .def_120))
(define-fun .def_123 () Bool (and .def_121 .def_122))
(define-fun .def_131 () Bool (and .def_123 .def_130))
(define-fun .def_135 () Bool (and .def_131 .def_134))
(define-fun .def_139 () Bool (and .def_135 .def_138))
(define-fun .def_142 () Bool (and .def_139 .def_141))
(define-fun .def_147 () Bool (and .def_142 .def_146))
(define-fun .def_153 () Bool (and .def_147 .def_152))
(define-fun .def_154 () Bool (and |.loc{8}| .def_153))
(define-fun .def_158 () Bool (and .def_154 .def_157))
(define-fun .def_162 () Bool (and .def_158 .def_161))
(define-fun .def_166 () Bool (and .def_162 .def_165))
(define-fun .def_170 () Bool (and .def_166 .def_169))
(define-fun .def_173 () Bool (and .def_170 .def_172))
(define-fun .def_176 () Bool (and .def_173 .def_175))
(define-fun .def_179 () Bool (and .def_176 .def_178))
(define-fun .def_183 () Bool (and .def_179 .def_182))
(define-fun .def_186 () Bool (and .def_183 .def_185))
(define-fun .def_187 () Bool (and .def_84 .def_186))
(define-fun .def_191 () Bool (and .def_187 .def_190))
(define-fun .def_198 () Bool (and .def_191 .def_197))
(define-fun .def_200 () Bool (and .def_198 .def_199))
(define-fun .def_204 () Bool (and .def_200 .def_203))
(define-fun .def_207 () Bool (and .def_204 .def_206))
(define-fun .def_213 () Bool (and .def_207 .def_212))
(define-fun .def_216 () Bool (and .def_213 .def_215))
(define-fun .def_219 () Bool (and .def_216 .def_218))
(define-fun .def_221 () Bool (and .def_219 .def_220))
(define-fun .def_226 () Bool (and .def_221 .def_225))
(define-fun .def_229 () Bool (and .def_226 .def_228))
(define-fun .def_234 () Bool (and .def_229 .def_233))
(define-fun .def_237 () Bool (and .def_234 .def_236))
(define-fun .def_241 () Bool (and .def_237 .def_240))
(define-fun .def_244 () Bool (and .def_241 .def_243))
(define-fun .def_246 () Bool (and .def_244 .def_245))
(define-fun .def_251 () Bool (and .def_246 .def_250))
(define-fun .def_252 () Bool (and .def_73 .def_251))
(define-fun .def_255 () Bool (and .def_252 .def_254))
(define-fun .def_258 () Bool (and .def_255 .def_257))
(define-fun .def_457 () Bool (or .def_258 .def_456))
(define-fun .def_86 () Bool (<= |.y{15}| 0))
(define-fun .def_87 () Bool (not .def_86))
(define-fun .def_81 () Bool (<= |.y{12}| 0))
(define-fun .def_82 () Bool (not .def_81))
(define-fun .def_78 () Bool (= |.y{13}| 0))
(define-fun .def_75 () Bool (and .def_30 .def_32))
(define-fun .def_76 () Bool (and |.loc{7}| .def_75))
(define-fun .def_77 () Bool (and .def_35 .def_76))
(define-fun .def_79 () Bool (and .def_77 .def_78))
(define-fun .def_80 () Bool (and .def_37 .def_79))
(define-fun .def_83 () Bool (and .def_80 .def_82))
(define-fun .def_85 () Bool (and .def_83 .def_84))
(define-fun .def_88 () Bool (and .def_85 .def_87))
(define-fun .def_89 () Bool (and .def_73 .def_88))
(define-fun .def_458 () Bool (or .def_89 .def_457))
(define-fun .def_71 () Bool (= .def_10 |.y{12}|))
(define-fun .def_69 () Bool (or .def_52 .def_68))
(define-fun .def_63 () Int (+ .def_12 .def_62))
(define-fun .def_64 () Int (+ .def_10 .def_63))
(define-fun .def_65 () Bool (= .def_64 0))
(define-fun .def_56 () Bool (not .def_55))
(define-fun .def_48 () (Array Int Int) (store .def_14 |.x{79}| |.x{80}|))
(define-fun .def_49 () Bool (= |.y{14}| .def_48))
(define-fun .def_42 () Int (* (- 1) |.y{13}|))
(define-fun .def_43 () Int (+ .def_12 .def_42))
(define-fun .def_44 () Bool (= .def_43 (- 1)))
(define-fun .def_31 () Bool (and .def_24 .def_30))
(define-fun .def_33 () Bool (and .def_31 .def_32))
(define-fun .def_34 () Bool (and |.loc{7}| .def_33))
(define-fun .def_36 () Bool (and .def_34 .def_35))
(define-fun .def_38 () Bool (and .def_36 .def_37))
(define-fun .def_40 () Bool (and .def_38 .def_39))
(define-fun .def_45 () Bool (and .def_40 .def_44))
(define-fun .def_50 () Bool (and .def_45 .def_49))
(define-fun .def_54 () Bool (and .def_50 .def_53))
(define-fun .def_57 () Bool (and .def_54 .def_56))
(define-fun .def_66 () Bool (and .def_57 .def_65))
(define-fun .def_70 () Bool (and .def_66 .def_69))
(define-fun .def_72 () Bool (and .def_70 .def_71))
(define-fun .def_74 () Bool (and .def_72 .def_73))
(define-fun .def_459 () Bool (! (or .def_74 .def_458) :trans true))
(define-fun .def_462 () Bool (and .def_24 .def_37))
(define-fun .def_463 () Bool (and .def_28 .def_462))
(define-fun .def_464 () Bool (! (not .def_463) :invar-property 0))
(assert true)
